100
120
100
99
99
98
97
97
97
96
94
94
93
93
93
91
89
89
89
89
89
88
87
87
86
86
85
85
84
83
80
79
78
77
77
77
73
73
71
70
70
69
69
68
67
65
63
62
62
62
62
61
60
60
59
59
59
58
58
58
57
57
56
56
55
54
53
52
51
49
48
47
46
45
45
45
44
43
42
42
42
42
41
40
39
39
38
37
35
35
35
35
34
33
33
32
32
31
30
30
30
30
